; benchmark generated from python API
(set-info :status unknown)
(declare-fun x_days () Int)
(assert
 (>= x_days (- 36584)))
(assert
 (<= x_days 36829))
(assert
 (>= x_days 8341))
(assert
 (<= x_days 8705))
(assert
 (let (($x29 (or (and (= (mod 2000 4) 0) (and (distinct (mod 2000 100) 0) true)) (= (mod 2000 400) 0))))
(let ((?x36 (ite (= 3 2) (ite $x29 31 31) (ite (= 3 1) (ite $x29 0 0) 0))))
(let ((?x40 (ite $x29 60 59)))
(let ((?x41 (ite (= 3 3) ?x40 ?x36)))
(let ((?x46 (ite (= 3 4) (ite $x29 91 90) ?x41)))
(let ((?x52 (ite (= 3 5) (ite $x29 121 120) ?x46)))
(let ((?x58 (ite (= 3 6) (ite $x29 152 151) ?x52)))
(let ((?x64 (ite (= 3 7) (ite $x29 182 181) ?x58)))
(let ((?x70 (ite (= 3 8) (ite $x29 213 212) ?x64)))
(let ((?x76 (ite (= 3 9) (ite $x29 244 243) ?x70)))
(let ((?x82 (ite (= 3 10) (ite $x29 274 273) ?x76)))
(let ((?x88 (ite (= 3 11) (ite $x29 305 304) ?x82)))
(let ((?x16 (- (+ (* 365 (- 2000 1)) (div (- 2000 1) 4)) (div (- 2000 1) 100))))
(let ((?x95 (+ (+ ?x16 (div (- 2000 1) 400)) (ite (= 3 12) (ite $x29 335 334) ?x88))))
(let ((?x97 (+ ?x95 (- 1 1))))
(let ((?x756 (+ x_days ?x97)))
(let ((?x2923 (mod ?x756 146097)))
(let ((?x285 (div ?x2923 36524)))
(let ((?x693 (ite (<= 4 ?x285) 3 ?x285)))
(let ((?x3084 (- ?x2923 (* ?x693 36524))))
(let ((?x1318 (mod ?x3084 1461)))
(let ((?x269 (div ?x1318 365)))
(let ((?x479 (ite (<= 4 ?x269) 3 ?x269)))
(let ((?x752 (+ (+ (* (div ?x756 146097) 400) (* ?x693 100)) (* (div ?x3084 1461) 4))))
(let ((?x1562 (+ (+ ?x752 ?x479) 1)))
(let (($x694 (or (and (= (mod ?x1562 4) 0) (and (distinct (mod ?x1562 100) 0) true)) (= (mod ?x1562 400) 0))))
(let ((?x691 (- ?x1318 (* ?x479 365))))
(let ((?x972 (ite $x694 31 31)))
(let (($x2487 (>= ?x691 ?x972)))
(let ((?x3137 (ite $x2487 (+ (- ?x691 ?x972) 1) (+ (- ?x691 (ite $x694 0 0)) 1))))
(let ((?x561 (ite $x694 60 59)))
(let (($x1941 (>= ?x691 ?x561)))
(let ((?x1830 (ite $x694 91 90)))
(let (($x308 (>= ?x691 ?x1830)))
(let ((?x2773 (ite $x308 (+ (- ?x691 ?x1830) 1) (ite $x1941 (+ (- ?x691 ?x561) 1) ?x3137))))
(let ((?x530 (ite $x694 121 120)))
(let (($x295 (>= ?x691 ?x530)))
(let ((?x268 (ite $x694 152 151)))
(let (($x635 (>= ?x691 ?x268)))
(let ((?x1378 (ite $x635 (+ (- ?x691 ?x268) 1) (ite $x295 (+ (- ?x691 ?x530) 1) ?x2773))))
(let ((?x1674 (ite $x694 182 181)))
(let (($x522 (>= ?x691 ?x1674)))
(let ((?x1117 (ite $x694 213 212)))
(let (($x661 (>= ?x691 ?x1117)))
(let ((?x134 (ite $x661 (+ (- ?x691 ?x1117) 1) (ite $x522 (+ (- ?x691 ?x1674) 1) ?x1378))))
(let ((?x653 (ite $x694 244 243)))
(let (($x829 (>= ?x691 ?x653)))
(let ((?x727 (ite $x694 274 273)))
(let (($x1551 (>= ?x691 ?x727)))
(let ((?x802 (ite $x1551 (+ (- ?x691 ?x727) 1) (ite $x829 (+ (- ?x691 ?x653) 1) ?x134))))
(let ((?x848 (ite $x694 305 304)))
(let (($x2869 (>= ?x691 ?x848)))
(let ((?x734 (ite $x694 335 334)))
(let (($x787 (>= ?x691 ?x734)))
(let ((?x741 (ite $x787 (+ (- ?x691 ?x734) 1) (ite $x2869 (+ (- ?x691 ?x848) 1) ?x802))))
(let ((?x689 (ite $x295 5 (ite $x308 4 (ite $x1941 3 (ite $x2487 2 1))))))
(let ((?x630 (ite $x829 9 (ite $x661 8 (ite $x522 7 (ite $x635 6 ?x689))))))
(let ((?x1628 (+ (ite $x787 12 (ite $x2869 11 (ite $x1551 10 ?x630))) (+ (* 0 12) 2))))
(let ((?x3177 (- ?x1628 1)))
(let ((?x2354 (+ (mod ?x3177 12) 1)))
(let ((?x1601 (ite (or (= ?x2354 4) (= ?x2354 6) (= ?x2354 9) (= ?x2354 11)) 30 31)))
(let (($x2694 (and (= (mod (+ ?x1562 (+ 0 (div ?x3177 12))) 4) 0) (and (distinct (mod (+ ?x1562 (+ 0 (div ?x3177 12))) 100) 0) true))))
(let (($x1828 (or $x2694 (= (mod (+ ?x1562 (+ 0 (div ?x3177 12))) 400) 0))))
(let ((?x264 (ite (= ?x2354 2) (ite $x1828 29 28) ?x1601)))
(let ((?x822 (ite (> 1 ?x741) 1 (ite (> ?x741 ?x264) ?x264 ?x741))))
(let ((?x2611 (ite (> 1 ?x822) 1 (ite (> ?x822 ?x264) ?x264 ?x822))))
(let ((?x2696 (ite (= 2 ?x2354) (ite $x1828 31 31) (ite (= 1 ?x2354) (ite $x1828 0 0) 0))))
(let ((?x788 (ite (= 4 ?x2354) (ite $x1828 91 90) (ite (= 3 ?x2354) (ite $x1828 60 59) ?x2696))))
(let ((?x3123 (ite (= 6 ?x2354) (ite $x1828 152 151) (ite (= 5 ?x2354) (ite $x1828 121 120) ?x788))))
(let ((?x2135 (ite (= 8 ?x2354) (ite $x1828 213 212) (ite (= 7 ?x2354) (ite $x1828 182 181) ?x3123))))
(let ((?x2602 (ite (= 10 ?x2354) (ite $x1828 274 273) (ite (= 9 ?x2354) (ite $x1828 244 243) ?x2135))))
(let ((?x1664 (ite (= 12 ?x2354) (ite $x1828 335 334) (ite (= 11 ?x2354) (ite $x1828 305 304) ?x2602))))
(let ((?x629 (+ (* 365 (- (+ ?x1562 (+ 0 (div ?x3177 12))) 1)) (div (- (+ ?x1562 (+ 0 (div ?x3177 12))) 1) 4))))
(let ((?x454 (+ (- ?x629 (div (- (+ ?x1562 (+ 0 (div ?x3177 12))) 1) 100)) (div (- (+ ?x1562 (+ 0 (div ?x3177 12))) 1) 400))))
(let ((?x954 (+ (+ (- (+ (+ ?x454 ?x1664) (- ?x2611 1)) ?x97) 0) ?x97)))
(let ((?x1904 (mod ?x954 146097)))
(let ((?x2094 (div ?x1904 36524)))
(let ((?x2440 (ite (<= 4 ?x2094) 3 ?x2094)))
(let ((?x2226 (- ?x1904 (* ?x2440 36524))))
(let ((?x2168 (mod ?x2226 1461)))
(let ((?x914 (div ?x2168 365)))
(let ((?x2808 (ite (<= 4 ?x914) 3 ?x914)))
(let ((?x257 (+ (+ (* (div ?x954 146097) 400) (* ?x2440 100)) (* (div ?x2226 1461) 4))))
(let ((?x1431 (+ (+ ?x257 ?x2808) 1)))
(let (($x765 (or (and (= (mod ?x1431 4) 0) (and (distinct (mod ?x1431 100) 0) true)) (= (mod ?x1431 400) 0))))
(let ((?x2096 (- ?x2168 (* ?x2808 365))))
(let ((?x1009 (ite $x765 31 31)))
(let (($x1858 (>= ?x2096 ?x1009)))
(let ((?x1358 (ite $x1858 (+ (- ?x2096 ?x1009) 1) (+ (- ?x2096 (ite $x765 0 0)) 1))))
(let ((?x2023 (ite $x765 60 59)))
(let (($x2086 (>= ?x2096 ?x2023)))
(let ((?x1065 (ite $x765 91 90)))
(let (($x2826 (>= ?x2096 ?x1065)))
(let ((?x3150 (ite $x2826 (+ (- ?x2096 ?x1065) 1) (ite $x2086 (+ (- ?x2096 ?x2023) 1) ?x1358))))
(let ((?x2626 (ite $x765 121 120)))
(let (($x628 (>= ?x2096 ?x2626)))
(let ((?x3116 (ite $x765 152 151)))
(let (($x2974 (>= ?x2096 ?x3116)))
(let ((?x2166 (ite $x2974 (+ (- ?x2096 ?x3116) 1) (ite $x628 (+ (- ?x2096 ?x2626) 1) ?x3150))))
(let ((?x1119 (ite $x765 182 181)))
(let (($x2215 (>= ?x2096 ?x1119)))
(let ((?x174 (ite $x765 213 212)))
(let (($x1750 (>= ?x2096 ?x174)))
(let ((?x1868 (ite $x1750 (+ (- ?x2096 ?x174) 1) (ite $x2215 (+ (- ?x2096 ?x1119) 1) ?x2166))))
(let ((?x1238 (ite $x765 244 243)))
(let (($x2790 (>= ?x2096 ?x1238)))
(let ((?x2210 (ite $x765 274 273)))
(let (($x1661 (>= ?x2096 ?x2210)))
(let ((?x124 (ite $x1661 (+ (- ?x2096 ?x2210) 1) (ite $x2790 (+ (- ?x2096 ?x1238) 1) ?x1868))))
(let ((?x2041 (ite $x765 305 304)))
(let (($x612 (>= ?x2096 ?x2041)))
(let ((?x1575 (ite $x765 335 334)))
(let (($x750 (>= ?x2096 ?x1575)))
(let ((?x776 (ite $x750 (+ (- ?x2096 ?x1575) 1) (ite $x612 (+ (- ?x2096 ?x2041) 1) ?x124))))
(let (($x2138 (= 0 0)))
(let (($x219 (= (mod (ite $x2138 (+ ?x1562 (+ 0 (div ?x3177 12))) ?x1431) 400) 0)))
(let (($x772 (and (distinct (mod (ite $x2138 (+ ?x1562 (+ 0 (div ?x3177 12))) ?x1431) 100) 0) true)))
(let (($x3332 (= (mod (ite $x2138 (+ ?x1562 (+ 0 (div ?x3177 12))) ?x1431) 4) 0)))
(let (($x2725 (or (and $x3332 $x772) $x219)))
(let ((?x766 (ite $x628 5 (ite $x2826 4 (ite $x2086 3 (ite $x1858 2 1))))))
(let ((?x2019 (ite $x2790 9 (ite $x1750 8 (ite $x2215 7 (ite $x2974 6 ?x766))))))
(let ((?x303 (ite $x2138 ?x2354 (ite $x750 12 (ite $x612 11 (ite $x1661 10 ?x2019))))))
(let ((?x1276 (ite (= 2 ?x303) (ite $x2725 31 31) (ite (= 1 ?x303) (ite $x2725 0 0) 0))))
(let ((?x677 (ite (= 4 ?x303) (ite $x2725 91 90) (ite (= 3 ?x303) (ite $x2725 60 59) ?x1276))))
(let ((?x194 (ite (= 6 ?x303) (ite $x2725 152 151) (ite (= 5 ?x303) (ite $x2725 121 120) ?x677))))
(let ((?x353 (ite (= 8 ?x303) (ite $x2725 213 212) (ite (= 7 ?x303) (ite $x2725 182 181) ?x194))))
(let ((?x571 (ite (= 10 ?x303) (ite $x2725 274 273) (ite (= 9 ?x303) (ite $x2725 244 243) ?x353))))
(let ((?x711 (ite (= 12 ?x303) (ite $x2725 335 334) (ite (= 11 ?x303) (ite $x2725 305 304) ?x571))))
(let ((?x3086 (+ ?x1562 (+ 0 (div ?x3177 12)))))
(let ((?x743 (ite $x2138 ?x3086 ?x1431)))
(let ((?x830 (- ?x743 1)))
(let ((?x1506 (+ (- (+ (* 365 ?x830) (div ?x830 4)) (div ?x830 100)) (div ?x830 400))))
(= (- (+ (+ ?x1506 ?x711) (- (ite $x2138 ?x2611 ?x776) 1)) ?x97) (+ x_days 61)))))))))))))))))))))))))))))))))))))))))))))))))))))))))))))))))))))))))))))))))))))))))))))))))))))))))))))))))))))))))))))))))))))))
(check-sat)
